letting input=[24,51,24,41,57,7,28,39,52,65,14,70,2,9,26,31,7,64,64,69,34,10,46,9,26,20,35,31,29,51,49,53,33,57,58]
letting output=[26,11,11,16,14,30,8,3,13,29,30,19,25,12,14]
letting MAX_OPS=143
letting num_registers=1
